(set-info :smt-lib-version 2.6)
(set-logic QF_S)
(set-info :source |
Generated by: Murphy Berzish, Mitja Kulczynski, Federico Mora, Florin Manea, Joel Day, Dirk Nowotka, Vijay Ganesh, Zhengyang Lu
Generated on: 2020-10-01
Description: Translated from a collection of real-world regex queries, AutomataArk, collected by Loris D’Antoni and Fang Wang: https://github.com/lorisdanto/automatark
Application: Evaluate solvers on real-world regex queries
Target solver: Z3str3RE, CVC4, OSTRICH, Z3seq, Z3str3, Z3-Trau
Publications: Berzish, M., Kulczynski, M., Mora, F., Manea, F., Day, J. D., Nowotka, D., & Ganesh, V. (2021, July). An SMT solver for regular expressions and linear arithmetic over string length. In CAV 2021.
|)
(set-info :license "https://creativecommons.org/licenses/by/4.0/")
(set-info :category "industrial")
(set-info :status sat)

(declare-const X String)
(assert (not (str.in_re X (re.++ (re.union (re.++ (re.union (re.++ (str.to_re "25") (re.range "0" "5")) (re.++ (str.to_re "2") (re.range "0" "4") (re.range "0" "9")) (re.++ (str.to_re "19") (re.range "0" "1")) (re.++ (str.to_re "19") (re.range "3" "9")) (re.++ (str.to_re "18") (re.range "0" "9")) (re.++ (str.to_re "17") (re.range "0" "1")) (re.++ (str.to_re "17") (re.range "3" "9")) (re.++ (str.to_re "1") (re.range "3" "6") (re.range "0" "9")) (re.++ (str.to_re "12") (re.range "8" "9")) (re.++ (str.to_re "12") (re.range "0" "6")) (re.++ (str.to_re "1") (re.range "0" "1") (re.range "0" "9")) (re.++ (str.to_re "1") (re.range "1" "9")) (re.++ (re.range "2" "9") (re.range "0" "9")) (re.range "0" "9")) (str.to_re ".") (re.union (re.++ (str.to_re "25") (re.range "0" "5")) (re.++ (str.to_re "2") (re.range "0" "4") (re.range "0" "9")) (re.++ (str.to_re "1") (re.range "0" "9") (re.range "0" "9")) (re.++ (re.range "1" "9") (re.range "0" "9")) (re.range "0" "9"))) (re.++ (str.to_re "192.") (re.union (re.++ (str.to_re "25") (re.range "0" "5")) (re.++ (str.to_re "2") (re.range "0" "4") (re.range "0" "9")) (re.++ (str.to_re "16") (re.range "0" "7")) (str.to_re "169") (re.++ (str.to_re "1") (re.range "0" "5") (re.range "0" "9")) (re.++ (str.to_re "1") (re.range "7" "9") (re.range "0" "9")) (re.++ (re.range "1" "9") (re.range "0" "9")) (re.range "0" "9"))) (re.++ (str.to_re "172.") (re.union (re.++ (str.to_re "25") (re.range "0" "5")) (re.++ (str.to_re "2") (re.range "0" "4") (re.range "0" "9")) (re.++ (str.to_re "1") (re.range "0" "9") (re.range "0" "9")) (re.++ (str.to_re "1") (re.range "0" "5")) (re.++ (str.to_re "3") (re.range "2" "9")) (re.++ (re.range "4" "9") (re.range "0" "9")) (re.range "0" "9")))) (str.to_re ".") (re.union (re.++ (str.to_re "25") (re.range "0" "5")) (re.++ (str.to_re "2") (re.range "0" "4") (re.range "0" "9")) (re.++ (str.to_re "1") (re.range "0" "9") (re.range "0" "9")) (re.++ (re.range "1" "9") (re.range "0" "9")) (re.range "0" "9")) (str.to_re ".") (re.union (re.++ (str.to_re "25") (re.range "0" "5")) (re.++ (str.to_re "2") (re.range "0" "4") (re.range "0" "9")) (re.++ (str.to_re "1") (re.range "0" "9") (re.range "0" "9")) (re.++ (re.range "1" "9") (re.range "0" "9")) (re.range "0" "9")) (str.to_re "\u{a}")))))
(assert (not (str.in_re X (re.++ (re.union (re.++ (re.union (re.++ (str.to_re "1") (re.range "1" "2")) (re.++ (str.to_re "0") (re.union (str.to_re "1") (str.to_re "|") (str.to_re "3") (str.to_re "5") (str.to_re "7") (str.to_re "8")))) (re.union (str.to_re "-") (str.to_re "|") (str.to_re "\u{5c}") (str.to_re "/") (str.to_re ".")) (re.union (re.++ (str.to_re "0") (re.range "1" "9")) (re.++ (str.to_re "1") (re.range "0" "9")) (re.++ (str.to_re "2") (re.range "0" "9")) (re.++ (str.to_re "3") (re.range "0" "1"))) (re.union (str.to_re "-") (str.to_re "|") (str.to_re "\u{5c}") (str.to_re "/") (str.to_re ".")) (re.union (re.++ (str.to_re "19") (re.range "0" "9") (re.union (str.to_re "2") (str.to_re "|") (str.to_re "4") (str.to_re "8"))) (re.++ (str.to_re "200") (re.union (str.to_re "2") (str.to_re "|") (str.to_re "4") (str.to_re "8"))) (str.to_re "2012"))) (re.++ (str.to_re "02") (re.union (str.to_re "-") (str.to_re "|") (str.to_re "\u{5c}") (str.to_re "/") (str.to_re ".")) (re.union (re.++ (str.to_re "0") (re.range "1" "9")) (re.++ (str.to_re "1") (re.range "0" "9")) (re.++ (str.to_re "2") (re.range "0" "9"))) (re.union (str.to_re "-") (str.to_re "|") (str.to_re "\u{5c}") (str.to_re "/") (str.to_re ".")) (re.union (re.++ (str.to_re "19") (re.range "0" "9") (re.union (str.to_re "2") (str.to_re "|") (str.to_re "4") (str.to_re "8"))) (re.++ (str.to_re "200") (re.union (str.to_re "2") (str.to_re "|") (str.to_re "4") (str.to_re "8"))) (str.to_re "2012"))) (re.++ (re.union (str.to_re "11") (re.++ (str.to_re "0") (re.union (str.to_re "4") (str.to_re "|") (str.to_re "6") (str.to_re "9")))) (re.union (str.to_re "-") (str.to_re "|") (str.to_re "\u{5c}") (str.to_re "/") (str.to_re ".")) (re.union (re.++ (str.to_re "0") (re.range "1" "9")) (re.++ (str.to_re "1") (re.range "0" "9")) (re.++ (str.to_re "2") (re.range "0" "9")) (str.to_re "30")) (re.union (str.to_re "-") (str.to_re "|") (str.to_re "\u{5c}") (str.to_re "/") (str.to_re ".")) (re.union (re.++ (str.to_re "19") (re.range "0" "9") (re.union (str.to_re "2") (str.to_re "|") (str.to_re "4") (str.to_re "8"))) (re.++ (str.to_re "200") (re.union (str.to_re "2") (str.to_re "|") (str.to_re "4") (str.to_re "8"))) (str.to_re "2012"))) (re.++ (re.union (re.++ (str.to_re "1") (re.range "1" "2")) (re.++ (str.to_re "0") (re.union (str.to_re "1") (str.to_re "|") (str.to_re "3") (str.to_re "5") (str.to_re "7") (str.to_re "8")))) (re.union (str.to_re "-") (str.to_re "|") (str.to_re "\u{5c}") (str.to_re "/") (str.to_re ".")) (re.union (re.++ (str.to_re "0") (re.range "1" "9")) (re.++ (str.to_re "1") (re.range "0" "9")) (re.++ (str.to_re "2") (re.range "0" "9")) (re.++ (str.to_re "3") (re.range "0" "1"))) (re.union (str.to_re "-") (str.to_re "|") (str.to_re "\u{5c}") (str.to_re "/") (str.to_re ".")) (re.union (re.++ (str.to_re "19") (re.range "0" "9") (re.union (str.to_re "0") (str.to_re "|") (str.to_re "1") (str.to_re "3") (str.to_re "5") (str.to_re "6") (str.to_re "7") (str.to_re "9"))) (re.++ (str.to_re "200") (re.union (str.to_re "0") (str.to_re "|") (str.to_re "1") (str.to_re "3") (str.to_re "5") (str.to_re "6") (str.to_re "7") (str.to_re "9"))) (re.++ (str.to_re "201") (re.union (str.to_re "0") (str.to_re "|") (str.to_re "1") (str.to_re "3"))))) (re.++ (str.to_re "02") (re.union (str.to_re "-") (str.to_re "|") (str.to_re "\u{5c}") (str.to_re "/") (str.to_re ".")) (re.union (re.++ (str.to_re "0") (re.range "1" "9")) (re.++ (str.to_re "1") (re.range "0" "9")) (re.++ (str.to_re "2") (re.range "0" "9"))) (re.union (str.to_re "-") (str.to_re "|") (str.to_re "\u{5c}") (str.to_re "/") (str.to_re ".")) (re.union (re.++ (str.to_re "19") (re.range "0" "9") (re.union (str.to_re "0") (str.to_re "|") (str.to_re "1") (str.to_re "3") (str.to_re "5") (str.to_re "6") (str.to_re "7") (str.to_re "9"))) (re.++ (str.to_re "200") (re.union (str.to_re "0") (str.to_re "|") (str.to_re "1") (str.to_re "3") (str.to_re "5") (str.to_re "6") (str.to_re "7") (str.to_re "9"))) (re.++ (str.to_re "201") (re.union (str.to_re "0") (str.to_re "|") (str.to_re "1") (str.to_re "3"))))) (re.++ (re.union (str.to_re "11") (re.++ (str.to_re "0") (re.union (str.to_re "4") (str.to_re "|") (str.to_re "6") (str.to_re "9")))) (re.union (str.to_re "-") (str.to_re "|") (str.to_re "\u{5c}") (str.to_re "/") (str.to_re ".")) (re.union (re.++ (str.to_re "0") (re.range "1" "9")) (re.++ (str.to_re "1") (re.range "0" "9")) (re.++ (str.to_re "2") (re.range "0" "9")) (str.to_re "30")) (re.union (str.to_re "-") (str.to_re "|") (str.to_re "\u{5c}") (str.to_re "/") (str.to_re ".")) (re.union (re.++ (str.to_re "19") (re.range "0" "9") (re.union (str.to_re "0") (str.to_re "|") (str.to_re "1") (str.to_re "3") (str.to_re "5") (str.to_re "6") (str.to_re "7") (str.to_re "9"))) (re.++ (str.to_re "200") (re.union (str.to_re "0") (str.to_re "|") (str.to_re "1") (str.to_re "3") (str.to_re "5") (str.to_re "6") (str.to_re "7") (str.to_re "9"))) (re.++ (str.to_re "201") (re.union (str.to_re "0") (str.to_re "|") (str.to_re "1") (str.to_re "3")))))) (str.to_re "\u{a}")))))
(check-sat)

(exit)
